Gurobi Optimizer version 9.0.1 build v9.0.1rc0 (linux64)
Optimize a model with 66844 rows, 212859 columns and 462128 nonzeros
Model fingerprint: 0x16db15cb
Coefficient statistics:
  Matrix range     [1e+00, 1e+00]
  Objective range  [3e+01, 1e+05]
  Bounds range     [8e+00, 2e+04]
  RHS range        [3e+01, 9e+04]
Presolve removed 42602 rows and 43132 columns
Presolve time: 1.58s
Presolved: 24242 rows, 169727 columns, 391017 nonzeros
Ordering time: 0.92s

Barrier statistics:
 AA' NZ     : 2.518e+05
 Factor NZ  : 6.584e+06 (roughly 130 MBytes of memory)
 Factor Ops : 6.777e+09 (less than 1 second per iteration)
 Threads    : 1

                  Objective                Residual
Iter       Primal          Dual         Primal    Dual     Compl     Time
   0   8.56474955e+09 -7.36309300e+11  2.26e+05 2.03e+05  6.62e+08     3s
   1  -3.04692809e+10 -7.44969674e+11  5.61e+04 5.71e+04  1.66e+08     4s
   2  -8.71894909e+09 -5.27506662e+11  2.74e+04 2.34e+03  8.16e+07     4s
   3   1.06820194e+10 -3.41826828e+11  7.37e+03 1.91e+02  2.28e+07     5s
   4   1.64293493e+10 -1.81721759e+11  1.97e+03 8.10e-08  6.54e+06     5s
   5   1.87431044e+10 -7.59123178e+10  3.77e+02 9.13e-08  1.51e+06     6s
   6   1.92882803e+10 -1.54800150e+10  2.91e+01 1.86e-08  2.42e+05     7s
   7   1.91881937e+10  2.61202278e+09  6.81e+00 9.78e-09  9.40e+04     7s
   8   1.90727138e+10  1.42126917e+10  4.36e-01 2.21e-09  2.37e+04     8s
   9   1.90170856e+10  1.72613507e+10  2.19e-01 9.31e-10  8.48e+03     9s
  10   1.89434975e+10  1.79441261e+10  3.75e-02 4.66e-10  4.77e+03    10s
  11   1.89150544e+10  1.85472646e+10  1.45e-02 2.33e-10  1.75e+03    10s
  12   1.88998628e+10  1.86973707e+10  8.54e-03 3.20e-10  9.65e+02    11s
  13   1.88935506e+10  1.87601496e+10  6.60e-03 2.47e-10  6.36e+02    11s
  14   1.88797791e+10  1.88034597e+10  2.84e-03 2.33e-10  3.63e+02    12s
  15   1.88753817e+10  1.88184710e+10  2.11e-03 2.62e-10  2.71e+02    12s
  16   1.88718820e+10  1.88280304e+10  1.60e-03 2.33e-10  2.09e+02    13s
  17   1.88684811e+10  1.88381327e+10  1.18e-03 2.76e-10  1.45e+02    13s
  18   1.88640854e+10  1.88438497e+10  6.67e-04 2.76e-10  9.64e+01    14s
  19   1.88612402e+10  1.88492762e+10  4.03e-04 2.40e-10  5.70e+01    14s
  20   1.88590746e+10  1.88523344e+10  2.27e-04 2.55e-10  3.21e+01    15s
  21   1.88576528e+10  1.88538546e+10  1.37e-04 2.33e-10  1.81e+01    16s
  22   1.88563669e+10  1.88544687e+10  6.08e-05 2.69e-10  9.04e+00    16s
  23   1.88561405e+10  1.88547070e+10  4.81e-05 2.80e-10  6.83e+00    17s
  24   1.88556639e+10  1.88550299e+10  2.23e-05 2.69e-10  3.02e+00    18s
  25   1.88554427e+10  1.88551248e+10  1.13e-05 2.33e-10  1.51e+00    18s
  26   1.88553396e+10  1.88551692e+10  6.40e-06 2.33e-10  8.11e-01    19s
  27   1.88552573e+10  1.88551860e+10  2.55e-06 2.36e-10  3.40e-01    19s
  28   1.88552111e+10  1.88551952e+10  5.05e-07 2.33e-10  7.56e-02    20s
  29   1.88551997e+10  1.88551987e+10  1.72e-07 3.49e-10  4.98e-03    20s
  30   1.88551988e+10  1.88551988e+10  3.17e-09 4.66e-10  1.49e-05    21s
  31   1.88551988e+10  1.88551988e+10  1.01e-11 3.49e-10  1.49e-08    21s
  32   1.88551988e+10  1.88551988e+10  1.57e-11 4.66e-10  5.56e-11    22s

Barrier solved model in 32 iterations and 21.93 seconds
Optimal objective 1.88551988e+10

Solver name: Gurobi
Solve time: 22.051323131
Termination status: OPTIMAL
Result count: 1
Primal status: FEASIBLE_POINT
Dual status: FEASIBLE_POINT
